Total weight: 1138.3587548788169
Route 1: 0 97 100 8 10 11 9 6 4 12 99 0 
Route 2: 0 13 17 18 19 15 16 14 23 21 0 
Route 3: 0 20 24 25 27 29 30 28 26 22 49 47 0 
Route 4: 0 32 33 31 35 38 37 36 39 34 0 
Route 5: 0 7 3 5 90 89 84 88 85 82 83 86 0 
Route 6: 0 43 42 41 40 44 46 45 48 51 50 52 0 
Route 7: 0 55 54 53 56 58 60 59 57 0 
Route 8: 0 62 61 72 73 70 71 64 68 66 69 67 0 
Route 9: 0 78 76 77 79 80 81 87 74 0 
Route 10: 0 91 94 92 93 95 96 98 2 1 75 0 
Route 11: 0 63 65 0 
